Route #1: 19 42 34 39 60 53 20 15
Route #2: 17 21 26 4 47 41 12 5 22 50 32 3
Route #3: 35 7 25 59 24 48
Route #4: 33 10 52 13 57 44 28 38
Route #5: 30 58 18 27 16 56 51
Route #6: 36 40 37 31 54 45 29
Route #7: 2 23 11 55 6 43
Route #8: 8 14 9
Route #9: 49 46
cost 1566
